500
1000
380
380
380
379
379
379
378
377
377
377
376
376
374
373
373
372
370
370
370
370
370
369
369
368
367
366
365
365
365
365
364
363
362
361
361
360
360
359
359
358
358
357
357
357
357
356
355
353
352
351
350
350
349
348
348
348
348
348
347
345
345
345
341
341
339
338
337
337
337
337
336
334
334
332
331
329
329
327
327
325
323
323
322
321
320
320
320
319
319
317
314
313
312
312
310
308
308
307
306
306
306
306
304
304
304
303
303
303
302
302
300
299
295
294
294
294
293
293
293
290
290
287
286
286
286
285
285
283
282
281
281
280
279
278
278
277
277
277
274
273
273
272
272
271
270
270
269
268
267
266
266
264
264
262
261
261
261
261
261
260
260
260
260
258
258
257
257
257
256
256
254
254
254
253
253
252
252
252
252
251
251
249
249
248
247
247
246
246
245
245
242
242
240
240
240
239
239
237
237
236
236
235
234
234
234
234
233
233
233
232
230
230
229
228
227
226
225
225
225
225
224
224
222
221
220
219
219
218
217
217
216
216
214
214
214
213
212
212
210
210
210
209
209
208
206
206
206
204
203
203
202
202
201
199
199
198
198
197
196
195
195
195
195
194
194
194
192
191
191
189
188
188
185
185
185
182
182
181
180
180
179
179
179
179
178
178
175
174
173
172
172
172
171
171
168
168
168
167
166
166
165
165
165
165
164
164
163
163
162
160
159
159
159
158
158
157
154
153
153
151
151
149
148
148
147
147
146
146
146
145
144
144
143
141
141
141
141
140
140
139
139
139
139
138
138
136
136
136
136
136
135
134
134
133
132
131
131
129
127
127
127
126
125
124
124
120
120
119
117
117
116
116
115
115
115
114
113
111
111
110
109
109
108
108
108
107
106
106
106
105
105
101
99
99
98
96
96
96
95
94
92
91
91
90
89
88
88
88
87
86
85
83
83
83
82
82
81
78
77
77
77
75
74
73
73
73
73
73
73
72
70
69
65
63
62
62
60
60
59
57
57
57
57
57
56
56
54
54
54
53
52
51
50
48
48
47
47
46
46
45
45
44
44
44
44
44
43
43
43
42
41
40
40
39
39
39
38
38
38
37
34
33
33
33
32
32
31
30
30
29
28
28
28
28
28
25
23
22
22
22
